(set-info :smt-lib-version 2.6)
(set-logic QF_S)
(set-info :source |
Generated by: Hung-En Wang, Tzung-Lin Tsai, Chun-Han Lin, Fang Yu, and Jie-Hong R. Jiang
Generated on: 2019-02-28
Generator: Stranger
Application: Security analysis of string manipulating web applications
Target solver: CVC4, Norn, Z3-str2
Publication:
Hung-En Wang, Tzung-Lin Tsai, Chun-Han Lin, Fang Yu, Jie-Hong R. Jiang:
String Analysis via Automata Manipulation with Logic Circuit Representation. CAV (1) 2016: 241-260.
|)
(set-info :license "https://creativecommons.org/licenses/by/4.0/")
(set-info :category "industrial")
(set-info :status unknown)

(declare-fun sigmaStar_0 () String)
(declare-fun sigmaStar_1 () String)
(declare-fun sigmaStar_2 () String)
(declare-fun sigmaStar_3 () String)
(declare-fun sigmaStar_4 () String)
(declare-fun sigmaStar_5 () String)
(declare-fun sigmaStar_6 () String)
(declare-fun sigmaStar_7 () String)
(declare-fun sigmaStar_8 () String)
(declare-fun sigmaStar_9 () String)
(declare-fun sigmaStar_10 () String)
(declare-fun sigmaStar_11 () String)
(declare-fun sigmaStar_12 () String)
(declare-fun sigmaStar_13 () String)
(declare-fun sigmaStar_14 () String)
(declare-fun sigmaStar_15 () String)
(declare-fun sigmaStar_16 () String)
(declare-fun sigmaStar_17 () String)
(declare-fun sigmaStar_18 () String)
(declare-fun sigmaStar_19 () String)
(declare-fun sigmaStar_20 () String)
(declare-fun sigmaStar_21 () String)
(declare-fun sigmaStar_22 () String)
(declare-fun literal_23 () String)
(declare-fun x_24 () String)
(declare-fun literal_25 () String)
(declare-fun x_26 () String)
(declare-fun x_27 () String)
(declare-fun literal_28 () String)
(declare-fun x_29 () String)
(declare-fun x_30 () String)
(declare-fun sigmaStar_31 () String)
(declare-fun literal_32 () String)
(declare-fun x_35 () String)
(declare-fun literal_34 () String)
(declare-fun x_38 () String)
(declare-fun x_39 () String)
(declare-fun literal_33 () String)
(declare-fun x_40 () String)
(declare-fun sigmaStar_41 () String)
(declare-fun literal_42 () String)
(declare-fun x_44 () String)
(declare-fun x_45 () String)
(declare-fun literal_43 () String)
(declare-fun x_47 () String)
(declare-fun x_48 () String)
(declare-fun x_49 () String)
(declare-fun literal_50 () String)
(declare-fun x_51 () String)
(declare-fun x_52 () String)
(declare-fun x_53 () String)
(declare-fun x_54 () String)
(declare-fun literal_56 () String)
(declare-fun x_57 () String)
(declare-fun literal_55 () String)
(declare-fun x_65 () String)
(declare-fun literal_64 () String)
(declare-fun x_67 () String)
(declare-fun literal_60 () String)
(declare-fun literal_61 () String)
(declare-fun literal_59 () String)
(declare-fun literal_58 () String)
(declare-fun x_69 () String)
(declare-fun literal_68 () String)
(declare-fun x_70 () String)
(declare-fun literal_73 () String)
(declare-fun x_77 () String)
(declare-fun x_78 () String)
(declare-fun literal_76 () String)
(declare-fun x_80 () String)
(declare-fun literal_74 () String)
(declare-fun literal_71 () String)
(declare-fun literal_72 () String)
(declare-fun x_81 () String)
(declare-fun x_82 () String)
(declare-fun literal_83 () String)
(declare-fun x_84 () String)
(declare-fun x_85 () String)
(declare-fun x_86 () String)
(declare-fun x_87 () String)
(declare-fun literal_88 () String)
(declare-fun x_89 () String)
(assert (= literal_23 "\u{3f}\u{61}\u{63}\u{74}\u{69}\u{6f}\u{6e}\u{3d}\u{65}\u{64}\u{69}\u{74}\u{26}\u{61}\u{6d}\u{70}\u{3b}\u{66}\u{6f}\u{72}\u{75}\u{6d}\u{5f}\u{69}\u{64}\u{3d}"))
(assert (= x_24 (str.++ literal_23 sigmaStar_4)))
(assert (= literal_25 "\u{26}\u{61}\u{6d}\u{70}\u{3b}\u{74}\u{68}\u{72}\u{65}\u{61}\u{64}\u{5f}\u{69}\u{64}\u{3d}"))
(assert (= x_26 (str.++ x_24 literal_25)))
(assert (= x_27 (str.++ x_26 sigmaStar_22)))
(assert (= literal_28 "\u{26}\u{61}\u{6d}\u{70}\u{3b}\u{70}\u{6f}\u{73}\u{74}\u{5f}\u{69}\u{64}\u{3d}"))
(assert (= x_29 (str.++ x_27 literal_28)))
(assert (= x_30 (str.++ x_29 sigmaStar_13)))
(assert (= literal_32 "\u{20}\u{65}\u{6e}\u{63}\u{74}\u{79}\u{70}\u{65}\u{3d}\u{6d}\u{75}\u{6c}\u{74}\u{69}\u{70}\u{61}\u{72}\u{74}\u{2f}\u{66}\u{6f}\u{72}\u{6d}\u{2d}\u{64}\u{61}\u{74}\u{61}\u{27}\u{3e}\u{0d}\u{0a}\u{3c}\u{74}\u{61}\u{62}\u{6c}\u{65}\u{20}\u{63}\u{65}\u{6c}\u{6c}\u{70}\u{61}\u{64}\u{64}\u{69}\u{6e}\u{67}\u{3d}\u{27}\u{30}\u{27}\u{20}\u{63}\u{65}\u{6c}\u{6c}\u{73}\u{70}\u{61}\u{63}\u{69}\u{6e}\u{67}\u{3d}\u{27}\u{30}\u{27}\u{20}\u{77}\u{69}\u{64}\u{74}\u{68}\u{3d}\u{27}\u{31}\u{30}\u{30}\u{25}\u{27}\u{20}\u{63}\u{6c}\u{61}\u{73}\u{73}\u{3d}\u{27}\u{74}\u{62}\u{6c}\u{2d}\u{62}\u{6f}\u{72}\u{64}\u{65}\u{72}\u{27}\u{3e}\u{0d}\u{0a}\u{3c}\u{74}\u{72}\u{3e}\u{0d}\u{0a}\u{3c}\u{74}\u{64}\u{3e}\u{0d}\u{0a}\u{3c}\u{74}\u{61}\u{62}\u{6c}\u{65}\u{20}\u{77}\u{69}\u{64}\u{74}\u{68}\u{3d}\u{27}\u{31}\u{30}\u{30}\u{25}\u{27}\u{20}\u{62}\u{6f}\u{72}\u{64}\u{65}\u{72}\u{3d}\u{27}\u{30}\u{27}\u{20}\u{63}\u{65}\u{6c}\u{6c}\u{73}\u{70}\u{61}\u{63}\u{69}\u{6e}\u{67}\u{3d}\u{27}\u{31}\u{27}\u{20}\u{63}\u{65}\u{6c}\u{6c}\u{70}\u{61}\u{64}\u{64}\u{69}\u{6e}\u{67}\u{3d}\u{27}\u{30}\u{27}\u{3e}\u{0d}\u{0a}\u{3c}\u{74}\u{72}\u{3e}\u{0d}\u{0a}\u{3c}\u{74}\u{64}\u{20}\u{77}\u{69}\u{64}\u{74}\u{68}\u{3d}\u{27}\u{31}\u{34}\u{35}\u{27}\u{20}\u{63}\u{6c}\u{61}\u{73}\u{73}\u{3d}\u{27}\u{74}\u{62}\u{6c}\u{32}\u{27}\u{3e}"))
(assert (= x_35 (str.++ x_30 literal_32)))
(assert (= literal_34 "\u{3c}\u{2f}\u{74}\u{64}\u{3e}\u{0d}\u{0a}\u{3c}\u{74}\u{64}\u{20}\u{63}\u{6c}\u{61}\u{73}\u{73}\u{3d}\u{27}\u{74}\u{62}\u{6c}\u{32}\u{27}\u{3e}\u{3c}\u{69}\u{6e}\u{70}\u{75}\u{74}\u{20}\u{74}\u{79}\u{70}\u{65}\u{3d}\u{27}\u{74}\u{65}\u{78}\u{74}\u{27}\u{20}\u{6e}\u{61}\u{6d}\u{65}\u{3d}\u{27}\u{73}\u{75}\u{62}\u{6a}\u{65}\u{63}\u{74}\u{27}\u{20}\u{76}\u{61}\u{6c}\u{75}\u{65}\u{3d}\u{27}"))
(assert (or (= x_38 sigmaStar_8) (= x_38 sigmaStar_14) (= x_38 sigmaStar_20) (= x_38 sigmaStar_1)))
(assert (= x_39 (str.++ literal_34 x_38)))
(assert (= literal_33 "\u{3c}\u{66}\u{6f}\u{72}\u{6d}\u{20}\u{6e}\u{61}\u{6d}\u{65}\u{3d}\u{27}\u{69}\u{6e}\u{70}\u{75}\u{74}\u{66}\u{6f}\u{72}\u{6d}\u{27}\u{20}\u{6d}\u{65}\u{74}\u{68}\u{6f}\u{64}\u{3d}\u{27}\u{70}\u{6f}\u{73}\u{74}\u{27}\u{20}\u{61}\u{63}\u{74}\u{69}\u{6f}\u{6e}\u{3d}\u{27}"))
(assert (= x_40 (str.++ literal_33 x_35)))
(assert (= literal_42 "\u{20}\u{63}\u{6c}\u{61}\u{73}\u{73}\u{3d}\u{74}\u{65}\u{78}\u{74}\u{62}\u{6f}\u{78}\u{27}\u{20}\u{6d}\u{61}\u{78}\u{6c}\u{65}\u{6e}\u{67}\u{74}\u{68}\u{3d}\u{27}\u{32}\u{35}\u{35}\u{27}\u{20}\u{73}\u{74}\u{79}\u{6c}\u{65}\u{3d}\u{27}\u{77}\u{69}\u{64}\u{74}\u{68}\u{3a}\u{32}\u{35}\u{30}\u{70}\u{78}\u{27}\u{3e}\u{3c}\u{2f}\u{74}\u{64}\u{3e}\u{0d}\u{0a}\u{3c}\u{2f}\u{74}\u{72}\u{3e}\u{0d}\u{0a}\u{3c}\u{74}\u{72}\u{3e}\u{0d}\u{0a}\u{3c}\u{74}\u{64}\u{20}\u{76}\u{61}\u{6c}\u{69}\u{67}\u{6e}\u{3d}\u{27}\u{74}\u{6f}\u{70}\u{27}\u{20}\u{77}\u{69}\u{64}\u{74}\u{68}\u{3d}\u{27}\u{31}\u{34}\u{35}\u{27}\u{20}\u{63}\u{6c}\u{61}\u{73}\u{73}\u{3d}\u{27}\u{74}\u{62}\u{6c}\u{32}\u{27}\u{3e}"))
(assert (= x_44 (str.++ x_39 literal_42)))
(assert (= x_45 (str.++ x_40 sigmaStar_16)))
(assert (= literal_43 "\u{3c}\u{2f}\u{74}\u{64}\u{3e}\u{0d}\u{0a}\u{3c}\u{74}\u{64}\u{20}\u{63}\u{6c}\u{61}\u{73}\u{73}\u{3d}\u{27}\u{74}\u{62}\u{6c}\u{31}\u{27}\u{3e}\u{3c}\u{74}\u{65}\u{78}\u{74}\u{61}\u{72}\u{65}\u{61}\u{20}\u{6e}\u{61}\u{6d}\u{65}\u{3d}\u{27}\u{6d}\u{65}\u{73}\u{73}\u{61}\u{67}\u{65}\u{27}\u{20}\u{63}\u{6f}\u{6c}\u{73}\u{3d}\u{27}\u{38}\u{30}\u{27}\u{20}\u{72}\u{6f}\u{77}\u{73}\u{3d}\u{27}\u{31}\u{35}\u{27}\u{20}\u{63}\u{6c}\u{61}\u{73}\u{73}\u{3d}\u{27}\u{74}\u{65}\u{78}\u{74}\u{62}\u{6f}\u{78}\u{27}\u{3e}"))
(assert (or (= x_47 sigmaStar_9) (= x_47 sigmaStar_21) (= x_47 sigmaStar_3)))
(assert (= x_48 (str.++ literal_43 x_47)))
(assert (= x_49 (str.++ x_45 x_44)))
(assert (= literal_50 "\u{3c}\u{2f}\u{74}\u{65}\u{78}\u{74}\u{61}\u{72}\u{65}\u{61}\u{3e}\u{3c}\u{2f}\u{74}\u{64}\u{3e}\u{0d}\u{0a}\u{3c}\u{2f}\u{74}\u{72}\u{3e}\u{0d}\u{0a}\u{3c}\u{74}\u{72}\u{3e}\u{0d}\u{0a}\u{3c}\u{74}\u{64}\u{20}\u{77}\u{69}\u{64}\u{74}\u{68}\u{3d}\u{27}\u{31}\u{34}\u{35}\u{27}\u{20}\u{63}\u{6c}\u{61}\u{73}\u{73}\u{3d}\u{27}\u{74}\u{62}\u{6c}\u{32}\u{27}\u{3e}\u{26}\u{6e}\u{62}\u{73}\u{70}\u{3b}\u{3c}\u{2f}\u{74}\u{64}\u{3e}\u{0d}\u{0a}\u{3c}\u{74}\u{64}\u{20}\u{63}\u{6c}\u{61}\u{73}\u{73}\u{3d}\u{27}\u{74}\u{62}\u{6c}\u{32}\u{27}\u{3e}\u{0d}\u{0a}\u{3c}\u{69}\u{6e}\u{70}\u{75}\u{74}\u{20}\u{74}\u{79}\u{70}\u{65}\u{3d}\u{27}\u{62}\u{75}\u{74}\u{74}\u{6f}\u{6e}\u{27}\u{20}\u{76}\u{61}\u{6c}\u{75}\u{65}\u{3d}\u{27}\u{62}\u{27}\u{20}\u{63}\u{6c}\u{61}\u{73}\u{73}\u{3d}\u{27}\u{62}\u{75}\u{74}\u{74}\u{6f}\u{6e}\u{27}\u{20}\u{73}\u{74}\u{79}\u{6c}\u{65}\u{3d}\u{27}\u{66}\u{6f}\u{6e}\u{74}\u{2d}\u{77}\u{65}\u{69}\u{67}\u{68}\u{74}\u{3a}\u{62}\u{6f}\u{6c}\u{64}\u{3b}\u{77}\u{69}\u{64}\u{74}\u{68}\u{3a}\u{32}\u{35}\u{70}\u{78}\u{3b}\u{27}\u{20}\u{6f}\u{6e}\u{43}\u{6c}\u{69}\u{63}\u{6b}\u{3d}\u{5c}\u{22}\u{61}\u{64}\u{64}\u{54}\u{65}\u{78}\u{74}\u{28}\u{27}\u{6d}\u{65}\u{73}\u{73}\u{61}\u{67}\u{65}\u{27}\u{2c}\u{20}\u{27}\u{5b}\u{62}\u{5d}\u{27}\u{2c}\u{20}\u{27}\u{5b}\u{2f}\u{62}\u{5d}\u{27}\u{29}\u{3b}\u{5c}\u{22}\u{3e}\u{0d}\u{0a}\u{3c}\u{69}\u{6e}\u{70}\u{75}\u{74}\u{20}\u{74}\u{79}\u{70}\u{65}\u{3d}\u{27}\u{62}\u{75}\u{74}\u{74}\u{6f}\u{6e}\u{27}\u{20}\u{76}\u{61}\u{6c}\u{75}\u{65}\u{3d}\u{27}\u{69}\u{27}\u{20}\u{63}\u{6c}\u{61}\u{73}\u{73}\u{3d}\u{27}\u{62}\u{75}\u{74}\u{74}\u{6f}\u{6e}\u{27}\u{20}\u{73}\u{74}\u{79}\u{6c}\u{65}\u{3d}\u{27}\u{66}\u{6f}\u{6e}\u{74}\u{2d}\u{73}\u{74}\u{79}\u{6c}\u{65}\u{3a}\u{69}\u{74}\u{61}\u{6c}\u{69}\u{63}\u{3b}\u{77}\u{69}\u{64}\u{74}\u{68}\u{3a}\u{32}\u{35}\u{70}\u{78}\u{3b}\u{27}\u{20}\u{6f}\u{6e}\u{43}\u{6c}\u{69}\u{63}\u{6b}\u{3d}\u{5c}\u{22}\u{61}\u{64}\u{64}\u{54}\u{65}\u{78}\u{74}\u{28}\u{27}\u{6d}\u{65}\u{73}\u{73}\u{61}\u{67}\u{65}\u{27}\u{2c}\u{20}\u{27}\u{5b}\u{69}\u{5d}\u{27}\u{2c}\u{20}\u{27}\u{5b}\u{2f}\u{69}\u{5d}\u{27}\u{29}\u{3b}\u{5c}\u{22}\u{3e}\u{0d}\u{0a}\u{3c}\u{69}\u{6e}\u{70}\u{75}\u{74}\u{20}\u{74}\u{79}\u{70}\u{65}\u{3d}\u{27}\u{62}\u{75}\u{74}\u{74}\u{6f}\u{6e}\u{27}\u{20}\u{76}\u{61}\u{6c}\u{75}\u{65}\u{3d}\u{27}\u{75}\u{27}\u{20}\u{63}\u{6c}\u{61}\u{73}\u{73}\u{3d}\u{27}\u{62}\u{75}\u{74}\u{74}\u{6f}\u{6e}\u{27}\u{20}\u{73}\u{74}\u{79}\u{6c}\u{65}\u{3d}\u{27}\u{74}\u{65}\u{78}\u{74}\u{2d}\u{64}\u{65}\u{63}\u{6f}\u{72}\u{61}\u{74}\u{69}\u{6f}\u{6e}\u{3a}\u{75}\u{6e}\u{64}\u{65}\u{72}\u{6c}\u{69}\u{6e}\u{65}\u{3b}\u{77}\u{69}\u{64}\u{74}\u{68}\u{3a}\u{32}\u{35}\u{70}\u{78}\u{3b}\u{27}\u{20}\u{6f}\u{6e}\u{43}\u{6c}\u{69}\u{63}\u{6b}\u{3d}\u{5c}\u{22}\u{61}\u{64}\u{64}\u{54}\u{65}\u{78}\u{74}\u{28}\u{27}\u{6d}\u{65}\u{73}\u{73}\u{61}\u{67}\u{65}\u{27}\u{2c}\u{20}\u{27}\u{5b}\u{75}\u{5d}\u{27}\u{2c}\u{20}\u{27}\u{5b}\u{2f}\u{75}\u{5d}\u{27}\u{29}\u{3b}\u{5c}\u{22}\u{3e}\u{0d}\u{0a}\u{3c}\u{69}\u{6e}\u{70}\u{75}\u{74}\u{20}\u{74}\u{79}\u{70}\u{65}\u{3d}\u{27}\u{62}\u{75}\u{74}\u{74}\u{6f}\u{6e}\u{27}\u{20}\u{76}\u{61}\u{6c}\u{75}\u{65}\u{3d}\u{27}\u{75}\u{72}\u{6c}\u{27}\u{20}\u{63}\u{6c}\u{61}\u{73}\u{73}\u{3d}\u{27}\u{62}\u{75}\u{74}\u{74}\u{6f}\u{6e}\u{27}\u{20}\u{73}\u{74}\u{79}\u{6c}\u{65}\u{3d}\u{27}\u{77}\u{69}\u{64}\u{74}\u{68}\u{3a}\u{33}\u{30}\u{70}\u{78}\u{3b}\u{27}\u{20}\u{6f}\u{6e}\u{43}\u{6c}\u{69}\u{63}\u{6b}\u{3d}\u{5c}\u{22}\u{61}\u{64}\u{64}\u{54}\u{65}\u{78}\u{74}\u{28}\u{27}\u{6d}\u{65}\u{73}\u{73}\u{61}\u{67}\u{65}\u{27}\u{2c}\u{20}\u{27}\u{5b}\u{75}\u{72}\u{6c}\u{5d}\u{27}\u{2c}\u{20}\u{27}\u{5b}\u{2f}\u{75}\u{72}\u{6c}\u{5d}\u{27}\u{29}\u{3b}\u{5c}\u{22}\u{3e}\u{0d}\u{0a}\u{3c}\u{69}\u{6e}\u{70}\u{75}\u{74}\u{20}\u{74}\u{79}\u{70}\u{65}\u{3d}\u{27}\u{62}\u{75}\u{74}\u{74}\u{6f}\u{6e}\u{27}\u{20}\u{76}\u{61}\u{6c}\u{75}\u{65}\u{3d}\u{27}\u{6d}\u{61}\u{69}\u{6c}\u{27}\u{20}\u{63}\u{6c}\u{61}\u{73}\u{73}\u{3d}\u{27}\u{62}\u{75}\u{74}\u{74}\u{6f}\u{6e}\u{27}\u{20}\u{73}\u{74}\u{79}\u{6c}\u{65}\u{3d}\u{27}\u{77}\u{69}\u{64}\u{74}\u{68}\u{3a}\u{33}\u{35}\u{70}\u{78}\u{3b}\u{27}\u{20}\u{6f}\u{6e}\u{43}\u{6c}\u{69}\u{63}\u{6b}\u{3d}\u{5c}\u{22}\u{61}\u{64}\u{64}\u{54}\u{65}\u{78}\u{74}\u{28}\u{27}\u{6d}\u{65}\u{73}\u{73}\u{61}\u{67}\u{65}\u{27}\u{2c}\u{20}\u{27}\u{5b}\u{6d}\u{61}\u{69}\u{6c}\u{5d}\u{27}\u{2c}\u{20}\u{27}\u{5b}\u{2f}\u{6d}\u{61}\u{69}\u{6c}\u{5d}\u{27}\u{29}\u{3b}\u{5c}\u{22}\u{3e}\u{0d}\u{0a}\u{3c}\u{69}\u{6e}\u{70}\u{75}\u{74}\u{20}\u{74}\u{79}\u{70}\u{65}\u{3d}\u{27}\u{62}\u{75}\u{74}\u{74}\u{6f}\u{6e}\u{27}\u{20}\u{76}\u{61}\u{6c}\u{75}\u{65}\u{3d}\u{27}\u{69}\u{6d}\u{67}\u{27}\u{20}\u{63}\u{6c}\u{61}\u{73}\u{73}\u{3d}\u{27}\u{62}\u{75}\u{74}\u{74}\u{6f}\u{6e}\u{27}\u{20}\u{73}\u{74}\u{79}\u{6c}\u{65}\u{3d}\u{27}\u{77}\u{69}\u{64}\u{74}\u{68}\u{3a}\u{33}\u{30}\u{70}\u{78}\u{3b}\u{27}\u{20}\u{6f}\u{6e}\u{43}\u{6c}\u{69}\u{63}\u{6b}\u{3d}\u{5c}\u{22}\u{61}\u{64}\u{64}\u{54}\u{65}\u{78}\u{74}\u{28}\u{27}\u{6d}\u{65}\u{73}\u{73}\u{61}\u{67}\u{65}\u{27}\u{2c}\u{20}\u{27}\u{5b}\u{69}\u{6d}\u{67}\u{5d}\u{27}\u{2c}\u{20}\u{27}\u{5b}\u{2f}\u{69}\u{6d}\u{67}\u{5d}\u{27}\u{29}\u{3b}\u{5c}\u{22}\u{3e}\u{0d}\u{0a}\u{3c}\u{69}\u{6e}\u{70}\u{75}\u{74}\u{20}\u{74}\u{79}\u{70}\u{65}\u{3d}\u{27}\u{62}\u{75}\u{74}\u{74}\u{6f}\u{6e}\u{27}\u{20}\u{76}\u{61}\u{6c}\u{75}\u{65}\u{3d}\u{27}\u{63}\u{65}\u{6e}\u{74}\u{65}\u{72}\u{27}\u{20}\u{63}\u{6c}\u{61}\u{73}\u{73}\u{3d}\u{27}\u{62}\u{75}\u{74}\u{74}\u{6f}\u{6e}\u{27}\u{20}\u{73}\u{74}\u{79}\u{6c}\u{65}\u{3d}\u{27}\u{77}\u{69}\u{64}\u{74}\u{68}\u{3a}\u{34}\u{35}\u{70}\u{78}\u{3b}\u{27}\u{20}\u{6f}\u{6e}\u{43}\u{6c}\u{69}\u{63}\u{6b}\u{3d}\u{5c}\u{22}\u{61}\u{64}\u{64}\u{54}\u{65}\u{78}\u{74}\u{28}\u{27}\u{6d}\u{65}\u{73}\u{73}\u{61}\u{67}\u{65}\u{27}\u{2c}\u{20}\u{27}\u{5b}\u{63}\u{65}\u{6e}\u{74}\u{65}\u{72}\u{5d}\u{27}\u{2c}\u{20}\u{27}\u{5b}\u{2f}\u{63}\u{65}\u{6e}\u{74}\u{65}\u{72}\u{5d}\u{27}\u{29}\u{3b}\u{5c}\u{22}\u{3e}\u{0d}\u{0a}\u{3c}\u{69}\u{6e}\u{70}\u{75}\u{74}\u{20}\u{74}\u{79}\u{70}\u{65}\u{3d}\u{27}\u{62}\u{75}\u{74}\u{74}\u{6f}\u{6e}\u{27}\u{20}\u{76}\u{61}\u{6c}\u{75}\u{65}\u{3d}\u{27}\u{73}\u{6d}\u{61}\u{6c}\u{6c}\u{27}\u{20}\u{63}\u{6c}\u{61}\u{73}\u{73}\u{3d}\u{27}\u{62}\u{75}\u{74}\u{74}\u{6f}\u{6e}\u{27}\u{20}\u{73}\u{74}\u{79}\u{6c}\u{65}\u{3d}\u{27}\u{77}\u{69}\u{64}\u{74}\u{68}\u{3a}\u{34}\u{30}\u{70}\u{78}\u{3b}\u{27}\u{20}\u{6f}\u{6e}\u{43}\u{6c}\u{69}\u{63}\u{6b}\u{3d}\u{5c}\u{22}\u{61}\u{64}\u{64}\u{54}\u{65}\u{78}\u{74}\u{28}\u{27}\u{6d}\u{65}\u{73}\u{73}\u{61}\u{67}\u{65}\u{27}\u{2c}\u{20}\u{27}\u{5b}\u{73}\u{6d}\u{61}\u{6c}\u{6c}\u{5d}\u{27}\u{2c}\u{20}\u{27}\u{5b}\u{2f}\u{73}\u{6d}\u{61}\u{6c}\u{6c}\u{5d}\u{27}\u{29}\u{3b}\u{5c}\u{22}\u{3e}\u{0d}\u{0a}\u{3c}\u{69}\u{6e}\u{70}\u{75}\u{74}\u{20}\u{74}\u{79}\u{70}\u{65}\u{3d}\u{27}\u{62}\u{75}\u{74}\u{74}\u{6f}\u{6e}\u{27}\u{20}\u{76}\u{61}\u{6c}\u{75}\u{65}\u{3d}\u{27}\u{63}\u{6f}\u{64}\u{65}\u{27}\u{20}\u{63}\u{6c}\u{61}\u{73}\u{73}\u{3d}\u{27}\u{62}\u{75}\u{74}\u{74}\u{6f}\u{6e}\u{27}\u{20}\u{73}\u{74}\u{79}\u{6c}\u{65}\u{3d}\u{27}\u{77}\u{69}\u{64}\u{74}\u{68}\u{3a}\u{34}\u{30}\u{70}\u{78}\u{3b}\u{27}\u{20}\u{6f}\u{6e}\u{43}\u{6c}\u{69}\u{63}\u{6b}\u{3d}\u{5c}\u{22}\u{61}\u{64}\u{64}\u{54}\u{65}\u{78}\u{74}\u{28}\u{27}\u{6d}\u{65}\u{73}\u{73}\u{61}\u{67}\u{65}\u{27}\u{2c}\u{20}\u{27}\u{5b}\u{63}\u{6f}\u{64}\u{65}\u{5d}\u{27}\u{2c}\u{20}\u{27}\u{5b}\u{2f}\u{63}\u{6f}\u{64}\u{65}\u{5d}\u{27}\u{29}\u{3b}\u{5c}\u{22}\u{3e}\u{0d}\u{0a}\u{3c}\u{69}\u{6e}\u{70}\u{75}\u{74}\u{20}\u{74}\u{79}\u{70}\u{65}\u{3d}\u{27}\u{62}\u{75}\u{74}\u{74}\u{6f}\u{6e}\u{27}\u{20}\u{76}\u{61}\u{6c}\u{75}\u{65}\u{3d}\u{27}\u{71}\u{75}\u{6f}\u{74}\u{65}\u{27}\u{20}\u{63}\u{6c}\u{61}\u{73}\u{73}\u{3d}\u{27}\u{62}\u{75}\u{74}\u{74}\u{6f}\u{6e}\u{27}\u{20}\u{73}\u{74}\u{79}\u{6c}\u{65}\u{3d}\u{27}\u{77}\u{69}\u{64}\u{74}\u{68}\u{3a}\u{34}\u{35}\u{70}\u{78}\u{3b}\u{27}\u{20}\u{6f}\u{6e}\u{43}\u{6c}\u{69}\u{63}\u{6b}\u{3d}\u{5c}\u{22}\u{61}\u{64}\u{64}\u{54}\u{65}\u{78}\u{74}\u{28}\u{27}\u{6d}\u{65}\u{73}\u{73}\u{61}\u{67}\u{65}\u{27}\u{2c}\u{20}\u{27}\u{5b}\u{71}\u{75}\u{6f}\u{74}\u{65}\u{5d}\u{27}\u{2c}\u{20}\u{27}\u{5b}\u{2f}\u{71}\u{75}\u{6f}\u{74}\u{65}\u{5d}\u{27}\u{29}\u{3b}\u{5c}\u{22}\u{3e}\u{0d}\u{0a}\u{3c}\u{2f}\u{74}\u{64}\u{3e}\u{0d}\u{0a}\u{3c}\u{2f}\u{74}\u{72}\u{3e}\u{0d}\u{0a}\u{3c}\u{74}\u{72}\u{3e}\u{0d}\u{0a}\u{3c}\u{74}\u{64}\u{20}\u{77}\u{69}\u{64}\u{74}\u{68}\u{3d}\u{27}\u{31}\u{34}\u{35}\u{27}\u{20}\u{63}\u{6c}\u{61}\u{73}\u{73}\u{3d}\u{27}\u{74}\u{62}\u{6c}\u{32}\u{27}\u{3e}\u{26}\u{6e}\u{62}\u{73}\u{70}\u{3b}\u{3c}\u{2f}\u{74}\u{64}\u{3e}\u{0d}\u{0a}\u{3c}\u{74}\u{64}\u{20}\u{63}\u{6c}\u{61}\u{73}\u{73}\u{3d}\u{27}\u{74}\u{62}\u{6c}\u{31}\u{27}\u{3e}\u{0d}\u{0a}"))
(assert (= x_51 (str.++ x_48 literal_50)))
(assert (= x_52 (str.++ x_49 sigmaStar_17)))
(assert (= x_53 (str.++ x_52 x_51)))
(assert (= x_54 (str.++ x_53 sigmaStar_12)))
(assert (= literal_56 "\u{3c}\u{73}\u{65}\u{6c}\u{65}\u{63}\u{74}\u{20}\u{6e}\u{61}\u{6d}\u{65}\u{3d}\u{27}\u{62}\u{62}\u{63}\u{6f}\u{6c}\u{6f}\u{72}\u{27}\u{20}\u{63}\u{6c}\u{61}\u{73}\u{73}\u{3d}\u{27}\u{74}\u{65}\u{78}\u{74}\u{62}\u{6f}\u{78}\u{27}\u{20}\u{73}\u{74}\u{79}\u{6c}\u{65}\u{3d}\u{27}\u{77}\u{69}\u{64}\u{74}\u{68}\u{3a}\u{39}\u{30}\u{70}\u{78}\u{3b}\u{27}\u{20}\u{6f}\u{6e}\u{43}\u{68}\u{61}\u{6e}\u{67}\u{65}\u{3d}\u{22}\u{61}\u{64}\u{64}\u{54}\u{65}\u{78}\u{74}\u{28}\u{27}\u{6d}\u{65}\u{73}\u{73}\u{61}\u{67}\u{65}\u{27}\u{2c}\u{20}\u{27}\u{5b}\u{63}\u{6f}\u{6c}\u{6f}\u{72}\u{3d}\u{27}\u{20}\u{2b}\u{20}\u{74}\u{68}\u{69}\u{73}\u{2e}\u{6f}\u{70}\u{74}\u{69}\u{6f}\u{6e}\u{73}\u{5b}\u{74}\u{68}\u{69}\u{73}\u{2e}\u{73}\u{65}\u{6c}\u{65}\u{63}\u{74}\u{65}\u{64}\u{49}\u{6e}\u{64}\u{65}\u{78}\u{5d}\u{2e}\u{76}\u{61}\u{6c}\u{75}\u{65}\u{20}\u{2b}\u{20}\u{27}\u{5d}\u{27}\u{2c}\u{20}\u{27}\u{5b}\u{2f}\u{63}\u{6f}\u{6c}\u{6f}\u{72}\u{5d}\u{27}\u{29}\u{3b}\u{74}\u{68}\u{69}\u{73}\u{2e}\u{73}\u{65}\u{6c}\u{65}\u{63}\u{74}\u{65}\u{64}\u{49}\u{6e}\u{64}\u{65}\u{78}\u{3d}\u{30}\u{3b}\u{22}\u{3e}\u{0d}\u{0a}\u{3c}\u{6f}\u{70}\u{74}\u{69}\u{6f}\u{6e}\u{20}\u{76}\u{61}\u{6c}\u{75}\u{65}\u{3d}\u{27}\u{27}\u{3e}\u{44}\u{65}\u{66}\u{61}\u{75}\u{6c}\u{74}\u{3c}\u{2f}\u{6f}\u{70}\u{74}\u{69}\u{6f}\u{6e}\u{3e}\u{0d}\u{0a}\u{3c}\u{6f}\u{70}\u{74}\u{69}\u{6f}\u{6e}\u{20}\u{76}\u{61}\u{6c}\u{75}\u{65}\u{3d}\u{27}\u{6d}\u{61}\u{72}\u{6f}\u{6f}\u{6e}\u{27}\u{20}\u{73}\u{74}\u{79}\u{6c}\u{65}\u{3d}\u{27}\u{63}\u{6f}\u{6c}\u{6f}\u{72}\u{3a}\u{6d}\u{61}\u{72}\u{6f}\u{6f}\u{6e}\u{3b}\u{27}\u{3e}\u{4d}\u{61}\u{72}\u{6f}\u{6f}\u{6e}\u{3c}\u{2f}\u{6f}\u{70}\u{74}\u{69}\u{6f}\u{6e}\u{3e}\u{0d}\u{0a}\u{3c}\u{6f}\u{70}\u{74}\u{69}\u{6f}\u{6e}\u{20}\u{76}\u{61}\u{6c}\u{75}\u{65}\u{3d}\u{27}\u{72}\u{65}\u{64}\u{27}\u{20}\u{73}\u{74}\u{79}\u{6c}\u{65}\u{3d}\u{27}\u{63}\u{6f}\u{6c}\u{6f}\u{72}\u{3a}\u{72}\u{65}\u{64}\u{3b}\u{27}\u{3e}\u{52}\u{65}\u{64}\u{3c}\u{2f}\u{6f}\u{70}\u{74}\u{69}\u{6f}\u{6e}\u{3e}\u{0d}\u{0a}\u{3c}\u{6f}\u{70}\u{74}\u{69}\u{6f}\u{6e}\u{20}\u{76}\u{61}\u{6c}\u{75}\u{65}\u{3d}\u{27}\u{6f}\u{72}\u{61}\u{6e}\u{67}\u{65}\u{27}\u{20}\u{73}\u{74}\u{79}\u{6c}\u{65}\u{3d}\u{27}\u{63}\u{6f}\u{6c}\u{6f}\u{72}\u{3a}\u{6f}\u{72}\u{61}\u{6e}\u{67}\u{65}\u{3b}\u{27}\u{3e}\u{4f}\u{72}\u{61}\u{6e}\u{67}\u{65}\u{3c}\u{2f}\u{6f}\u{70}\u{74}\u{69}\u{6f}\u{6e}\u{3e}\u{0d}\u{0a}\u{3c}\u{6f}\u{70}\u{74}\u{69}\u{6f}\u{6e}\u{20}\u{76}\u{61}\u{6c}\u{75}\u{65}\u{3d}\u{27}\u{62}\u{72}\u{6f}\u{77}\u{6e}\u{27}\u{20}\u{73}\u{74}\u{79}\u{6c}\u{65}\u{3d}\u{27}\u{63}\u{6f}\u{6c}\u{6f}\u{72}\u{3a}\u{62}\u{72}\u{6f}\u{77}\u{6e}\u{3b}\u{27}\u{3e}\u{42}\u{72}\u{6f}\u{77}\u{6e}\u{3c}\u{2f}\u{6f}\u{70}\u{74}\u{69}\u{6f}\u{6e}\u{3e}\u{0d}\u{0a}\u{3c}\u{6f}\u{70}\u{74}\u{69}\u{6f}\u{6e}\u{20}\u{76}\u{61}\u{6c}\u{75}\u{65}\u{3d}\u{27}\u{79}\u{65}\u{6c}\u{6c}\u{6f}\u{77}\u{27}\u{20}\u{73}\u{74}\u{79}\u{6c}\u{65}\u{3d}\u{27}\u{63}\u{6f}\u{6c}\u{6f}\u{72}\u{3a}\u{79}\u{65}\u{6c}\u{6c}\u{6f}\u{77}\u{3b}\u{27}\u{3e}\u{59}\u{65}\u{6c}\u{6c}\u{6f}\u{77}\u{3c}\u{2f}\u{6f}\u{70}\u{74}\u{69}\u{6f}\u{6e}\u{3e}\u{0d}\u{0a}\u{3c}\u{6f}\u{70}\u{74}\u{69}\u{6f}\u{6e}\u{20}\u{76}\u{61}\u{6c}\u{75}\u{65}\u{3d}\u{27}\u{67}\u{72}\u{65}\u{65}\u{6e}\u{27}\u{20}\u{73}\u{74}\u{79}\u{6c}\u{65}\u{3d}\u{27}\u{63}\u{6f}\u{6c}\u{6f}\u{72}\u{3a}\u{67}\u{72}\u{65}\u{65}\u{6e}\u{3b}\u{27}\u{3e}\u{47}\u{72}\u{65}\u{65}\u{6e}\u{3c}\u{2f}\u{6f}\u{70}\u{74}\u{69}\u{6f}\u{6e}\u{3e}\u{0d}\u{0a}\u{3c}\u{6f}\u{70}\u{74}\u{69}\u{6f}\u{6e}\u{20}\u{76}\u{61}\u{6c}\u{75}\u{65}\u{3d}\u{27}\u{6c}\u{69}\u{6d}\u{65}\u{27}\u{20}\u{73}\u{74}\u{79}\u{6c}\u{65}\u{3d}\u{27}\u{63}\u{6f}\u{6c}\u{6f}\u{72}\u{3a}\u{6c}\u{69}\u{6d}\u{65}\u{3b}\u{27}\u{3e}\u{4c}\u{69}\u{6d}\u{65}\u{3c}\u{2f}\u{6f}\u{70}\u{74}\u{69}\u{6f}\u{6e}\u{3e}\u{0d}\u{0a}\u{3c}\u{6f}\u{70}\u{74}\u{69}\u{6f}\u{6e}\u{20}\u{76}\u{61}\u{6c}\u{75}\u{65}\u{3d}\u{27}\u{6f}\u{6c}\u{69}\u{76}\u{65}\u{27}\u{20}\u{73}\u{74}\u{79}\u{6c}\u{65}\u{3d}\u{27}\u{63}\u{6f}\u{6c}\u{6f}\u{72}\u{3a}\u{6f}\u{6c}\u{69}\u{76}\u{65}\u{3b}\u{27}\u{3e}\u{4f}\u{6c}\u{69}\u{76}\u{65}\u{3c}\u{2f}\u{6f}\u{70}\u{74}\u{69}\u{6f}\u{6e}\u{3e}\u{0d}\u{0a}\u{3c}\u{6f}\u{70}\u{74}\u{69}\u{6f}\u{6e}\u{20}\u{76}\u{61}\u{6c}\u{75}\u{65}\u{3d}\u{27}\u{63}\u{79}\u{61}\u{6e}\u{27}\u{20}\u{73}\u{74}\u{79}\u{6c}\u{65}\u{3d}\u{27}\u{63}\u{6f}\u{6c}\u{6f}\u{72}\u{3a}\u{63}\u{79}\u{61}\u{6e}\u{3b}\u{27}\u{3e}\u{43}\u{79}\u{61}\u{6e}\u{3c}\u{2f}\u{6f}\u{70}\u{74}\u{69}\u{6f}\u{6e}\u{3e}\u{0d}\u{0a}\u{3c}\u{6f}\u{70}\u{74}\u{69}\u{6f}\u{6e}\u{20}\u{76}\u{61}\u{6c}\u{75}\u{65}\u{3d}\u{27}\u{62}\u{6c}\u{75}\u{65}\u{27}\u{20}\u{73}\u{74}\u{79}\u{6c}\u{65}\u{3d}\u{27}\u{63}\u{6f}\u{6c}\u{6f}\u{72}\u{3a}\u{62}\u{6c}\u{75}\u{65}\u{3b}\u{27}\u{3e}\u{42}\u{6c}\u{75}\u{65}\u{3c}\u{2f}\u{6f}\u{70}\u{74}\u{69}\u{6f}\u{6e}\u{3e}\u{0d}\u{0a}\u{3c}\u{6f}\u{70}\u{74}\u{69}\u{6f}\u{6e}\u{20}\u{76}\u{61}\u{6c}\u{75}\u{65}\u{3d}\u{27}\u{6e}\u{61}\u{76}\u{79}\u{27}\u{20}\u{73}\u{74}\u{79}\u{6c}\u{65}\u{3d}\u{27}\u{63}\u{6f}\u{6c}\u{6f}\u{72}\u{3a}\u{6e}\u{61}\u{76}\u{79}\u{3b}\u{27}\u{3e}\u{4e}\u{61}\u{76}\u{79}\u{20}\u{42}\u{6c}\u{75}\u{65}\u{3c}\u{2f}\u{6f}\u{70}\u{74}\u{69}\u{6f}\u{6e}\u{3e}\u{0d}\u{0a}\u{3c}\u{6f}\u{70}\u{74}\u{69}\u{6f}\u{6e}\u{20}\u{76}\u{61}\u{6c}\u{75}\u{65}\u{3d}\u{27}\u{70}\u{75}\u{72}\u{70}\u{6c}\u{65}\u{27}\u{20}\u{73}\u{74}\u{79}\u{6c}\u{65}\u{3d}\u{27}\u{63}\u{6f}\u{6c}\u{6f}\u{72}\u{3a}\u{70}\u{75}\u{72}\u{70}\u{6c}\u{65}\u{3b}\u{27}\u{3e}\u{50}\u{75}\u{72}\u{70}\u{6c}\u{65}\u{3c}\u{2f}\u{6f}\u{70}\u{74}\u{69}\u{6f}\u{6e}\u{3e}\u{0d}\u{0a}\u{3c}\u{6f}\u{70}\u{74}\u{69}\u{6f}\u{6e}\u{20}\u{76}\u{61}\u{6c}\u{75}\u{65}\u{3d}\u{27}\u{76}\u{69}\u{6f}\u{6c}\u{65}\u{74}\u{27}\u{20}\u{73}\u{74}\u{79}\u{6c}\u{65}\u{3d}\u{27}\u{63}\u{6f}\u{6c}\u{6f}\u{72}\u{3a}\u{76}\u{69}\u{6f}\u{6c}\u{65}\u{74}\u{3b}\u{27}\u{3e}\u{56}\u{69}\u{6f}\u{6c}\u{65}\u{74}\u{3c}\u{2f}\u{6f}\u{70}\u{74}\u{69}\u{6f}\u{6e}\u{3e}\u{0d}\u{0a}\u{3c}\u{6f}\u{70}\u{74}\u{69}\u{6f}\u{6e}\u{20}\u{76}\u{61}\u{6c}\u{75}\u{65}\u{3d}\u{27}\u{62}\u{6c}\u{61}\u{63}\u{6b}\u{27}\u{20}\u{73}\u{74}\u{79}\u{6c}\u{65}\u{3d}\u{27}\u{63}\u{6f}\u{6c}\u{6f}\u{72}\u{3a}\u{62}\u{6c}\u{61}\u{63}\u{6b}\u{3b}\u{27}\u{3e}\u{42}\u{6c}\u{61}\u{63}\u{6b}\u{3c}\u{2f}\u{6f}\u{70}\u{74}\u{69}\u{6f}\u{6e}\u{3e}\u{0d}\u{0a}\u{3c}\u{6f}\u{70}\u{74}\u{69}\u{6f}\u{6e}\u{20}\u{76}\u{61}\u{6c}\u{75}\u{65}\u{3d}\u{27}\u{67}\u{72}\u{61}\u{79}\u{27}\u{20}\u{73}\u{74}\u{79}\u{6c}\u{65}\u{3d}\u{27}\u{63}\u{6f}\u{6c}\u{6f}\u{72}\u{3a}\u{67}\u{72}\u{61}\u{79}\u{3b}\u{27}\u{3e}\u{47}\u{72}\u{61}\u{79}\u{3c}\u{2f}\u{6f}\u{70}\u{74}\u{69}\u{6f}\u{6e}\u{3e}\u{0d}\u{0a}\u{3c}\u{6f}\u{70}\u{74}\u{69}\u{6f}\u{6e}\u{20}\u{76}\u{61}\u{6c}\u{75}\u{65}\u{3d}\u{27}\u{73}\u{69}\u{6c}\u{76}\u{65}\u{72}\u{27}\u{20}\u{73}\u{74}\u{79}\u{6c}\u{65}\u{3d}\u{27}\u{63}\u{6f}\u{6c}\u{6f}\u{72}\u{3a}\u{73}\u{69}\u{6c}\u{76}\u{65}\u{72}\u{3b}\u{27}\u{3e}\u{53}\u{69}\u{6c}\u{76}\u{65}\u{72}\u{3c}\u{2f}\u{6f}\u{70}\u{74}\u{69}\u{6f}\u{6e}\u{3e}\u{0d}\u{0a}\u{3c}\u{6f}\u{70}\u{74}\u{69}\u{6f}\u{6e}\u{20}\u{76}\u{61}\u{6c}\u{75}\u{65}\u{3d}\u{27}\u{77}\u{68}\u{69}\u{74}\u{65}\u{27}\u{20}\u{73}\u{74}\u{79}\u{6c}\u{65}\u{3d}\u{27}\u{63}\u{6f}\u{6c}\u{6f}\u{72}\u{3a}\u{77}\u{68}\u{69}\u{74}\u{65}\u{3b}\u{27}\u{3e}\u{57}\u{68}\u{69}\u{74}\u{65}\u{3c}\u{2f}\u{6f}\u{70}\u{74}\u{69}\u{6f}\u{6e}\u{3e}\u{0d}\u{0a}\u{3c}\u{2f}\u{73}\u{65}\u{6c}\u{65}\u{63}\u{74}\u{3e}\u{0d}\u{0a}\u{3c}\u{2f}\u{74}\u{64}\u{3e}\u{0d}\u{0a}\u{3c}\u{2f}\u{74}\u{72}\u{3e}\u{0d}\u{0a}\u{3c}\u{74}\u{72}\u{3e}\u{0d}\u{0a}\u{3c}\u{74}\u{64}\u{20}\u{77}\u{69}\u{64}\u{74}\u{68}\u{3d}\u{27}\u{31}\u{34}\u{35}\u{27}\u{20}\u{63}\u{6c}\u{61}\u{73}\u{73}\u{3d}\u{27}\u{74}\u{62}\u{6c}\u{32}\u{27}\u{3e}\u{26}\u{6e}\u{62}\u{73}\u{70}\u{3b}\u{3c}\u{2f}\u{74}\u{64}\u{3e}\u{0d}\u{0a}\u{3c}\u{74}\u{64}\u{20}\u{63}\u{6c}\u{61}\u{73}\u{73}\u{3d}\u{27}\u{74}\u{62}\u{6c}\u{32}\u{27}\u{3e}\u{0d}\u{0a}"))
(assert (= x_57 (str.++ x_54 literal_56)))
(assert (= literal_55 "\u{6d}\u{65}\u{73}\u{73}\u{61}\u{67}\u{65}"))
(assert (= x_65 (str.++ x_57 literal_55)))
(assert (= literal_64 "\u{3c}\u{2f}\u{74}\u{64}\u{3e}\u{0d}\u{0a}\u{3c}\u{74}\u{64}\u{20}\u{63}\u{6c}\u{61}\u{73}\u{73}\u{3d}\u{27}\u{74}\u{62}\u{6c}\u{31}\u{27}\u{3e}\u{0d}\u{0a}\u{3c}\u{69}\u{6e}\u{70}\u{75}\u{74}\u{20}\u{74}\u{79}\u{70}\u{65}\u{3d}\u{27}\u{63}\u{68}\u{65}\u{63}\u{6b}\u{62}\u{6f}\u{78}\u{27}\u{20}\u{6e}\u{61}\u{6d}\u{65}\u{3d}\u{27}\u{64}\u{69}\u{73}\u{61}\u{62}\u{6c}\u{65}\u{5f}\u{73}\u{6d}\u{69}\u{6c}\u{65}\u{79}\u{73}\u{27}\u{20}\u{76}\u{61}\u{6c}\u{75}\u{65}\u{3d}\u{27}\u{31}\u{27}"))
(assert (= literal_60 "\u{20}\u{63}\u{68}\u{65}\u{63}\u{6b}\u{65}\u{64}"))
(assert (= literal_61 ""))
(assert (= literal_59 "\u{20}\u{63}\u{68}\u{65}\u{63}\u{6b}\u{65}\u{64}"))
(assert (= literal_58 ""))
(assert (or (= x_67 literal_60) (= x_67 literal_61) (= x_67 literal_59) (= x_67 sigmaStar_0) (= x_67 literal_58)))
(assert (= x_69 (str.++ literal_64 x_67)))
(assert (= literal_68 "\u{0d}\u{0a}\u{3c}\u{2f}\u{74}\u{64}\u{3e}\u{0d}\u{0a}\u{3c}\u{2f}\u{74}\u{72}\u{3e}\u{0d}\u{0a}\u{3c}\u{74}\u{72}\u{3e}\u{0d}\u{0a}\u{3c}\u{74}\u{64}\u{20}\u{76}\u{61}\u{6c}\u{69}\u{67}\u{6e}\u{3d}\u{27}\u{74}\u{6f}\u{70}\u{27}\u{20}\u{77}\u{69}\u{64}\u{74}\u{68}\u{3d}\u{27}\u{31}\u{34}\u{35}\u{27}\u{20}\u{63}\u{6c}\u{61}\u{73}\u{73}\u{3d}\u{27}\u{74}\u{62}\u{6c}\u{32}\u{27}\u{3e}"))
(assert (= x_70 (str.++ x_65 literal_68)))
(assert (= literal_73 "\u{3e}"))
(assert (= x_77 (str.++ x_69 literal_73)))
(assert (= x_78 (str.++ x_70 sigmaStar_2)))
(assert (= literal_76 "\u{3c}\u{62}\u{72}\u{3e}\u{0d}\u{0a}\u{3c}\u{69}\u{6e}\u{70}\u{75}\u{74}\u{20}\u{74}\u{79}\u{70}\u{65}\u{3d}\u{27}\u{63}\u{68}\u{65}\u{63}\u{6b}\u{62}\u{6f}\u{78}\u{27}\u{20}\u{6e}\u{61}\u{6d}\u{65}\u{3d}\u{27}\u{64}\u{65}\u{6c}\u{65}\u{74}\u{65}\u{27}\u{20}\u{76}\u{61}\u{6c}\u{75}\u{65}\u{3d}\u{27}\u{31}\u{27}"))
(assert (= literal_74 ""))
(assert (= literal_71 ""))
(assert (= literal_72 "\u{20}\u{63}\u{68}\u{65}\u{63}\u{6b}\u{65}\u{64}"))
(assert (or (= x_80 sigmaStar_18) (= x_80 literal_74) (= x_80 literal_71) (= x_80 literal_72)))
(assert (= x_81 (str.++ literal_76 x_80)))
(assert (= x_82 (str.++ x_78 x_77)))
(assert (= literal_83 "\u{3e}"))
(assert (= x_84 (str.++ x_81 literal_83)))
(assert (= x_85 (str.++ x_82 sigmaStar_15)))
(assert (= x_86 (str.++ x_85 x_84)))
(assert (= x_87 (str.++ x_86 sigmaStar_5)))
(assert (= literal_88 "\u{0d}\u{0a}\u{3c}\u{2f}\u{74}\u{64}\u{3e}\u{0d}\u{0a}\u{3c}\u{2f}\u{74}\u{72}\u{3e}\u{5c}\u{6e}"))
(assert (= x_89 (str.++ x_87 literal_88)))
(assert (str.in_re x_89 (re.++ (re.* re.allchar) (re.++ (str.to_re "\u{5c}\u{3c}\u{53}\u{43}\u{52}\u{49}\u{50}\u{54}") (re.* re.allchar)))))
(check-sat)
(exit)
